
Gurobi 7.5.2 (linux64) logging started Sat Jul  7 16:21:04 2018

Changed value of parameter LogFile to result/ilp/simNo_8-n_100-m_40-s_4-minVAF_0.05-cov_10000-k_1-fn_0.10-fp_0.0001-na_0.15.ILP.gurobiSolverLog
   Prev: gurobi.log  Default: 
Changed value of parameter TimeLimit to 86400.0
   Prev: 1e+100  Min: 0.0  Max: 1e+100  Default: 1e+100
Optimize a model with 639293 rows, 10765 columns and 1940420 nonzeros
Variable types: 0 continuous, 10765 integer (10765 binary)
Coefficient statistics:
  Matrix range     [1e-04, 4e+00]
  Objective range  [4e-01, 9e+00]
  Bounds range     [1e+00, 1e+00]
  RHS range        [2e-01, 2e+00]
Found heuristic solution: objective -14587.60270
Presolve removed 134215 rows and 1037 columns (presolve time = 5s) ...
Presolve removed 134807 rows and 1037 columns (presolve time = 14s) ...
Presolve removed 194007 rows and 1629 columns (presolve time = 16s) ...
Presolve removed 194007 rows and 1629 columns (presolve time = 20s) ...
Presolve removed 194007 rows and 1629 columns
Presolve time: 20.19s
Presolved: 445286 rows, 9136 columns, 1339668 nonzeros
Variable types: 0 continuous, 9136 integer (9136 binary)
Presolved: 9136 rows, 454422 columns, 1348804 nonzeros

Presolve removed 9136 rows and 454422 columns

Root simplex log...

Iteration    Objective       Primal Inf.    Dual Inf.      Time
       0    8.7560605e+00   0.000000e+00   7.200900e+04     24s
   11396   -1.6832617e+02   0.000000e+00   1.595188e+05     25s
   25668   -2.3738034e+02   0.000000e+00   0.000000e+00     29s
   25668   -2.3738034e+02   0.000000e+00   0.000000e+00     29s

Root relaxation: objective -2.373803e+02, 25668 iterations, 7.89 seconds
Total elapsed time = 63.36s
Total elapsed time = 101.04s
Total elapsed time = 120.28s

    Nodes    |    Current Node    |     Objective Bounds      |     Work
 Expl Unexpl |  Obj  Depth IntInf | Incumbent    BestBd   Gap | It/Node Time

     0     0 -237.38034    0  924 -14587.603 -237.38034  98.4%     -  124s
H    0     0                    -346.2297700 -237.38034  31.4%     -  128s
H    0     0                    -286.2761598 -237.38034  17.1%     -  130s
     0     0 -241.44207    0  924 -286.27616 -241.44207  15.7%     -  157s
H    0     0                    -283.9352545 -241.44207  15.0%     -  169s
     0     0 -241.94979    0  978 -283.93525 -241.94979  14.8%     -  182s
     0     0 -241.94979    0  989 -283.93525 -241.94979  14.8%     -  185s
     0     0 -247.53467    0  922 -283.93525 -247.53467  12.8%     -  237s
     0     0 -247.99525    0  909 -283.93525 -247.99525  12.7%     -  279s
     0     0 -248.15265    0  916 -283.93525 -248.15265  12.6%     -  293s
     0     0 -248.18608    0  912 -283.93525 -248.18608  12.6%     -  302s
     0     0 -248.19785    0  913 -283.93525 -248.19785  12.6%     -  314s
     0     0 -248.19807    0  909 -283.93525 -248.19807  12.6%     -  317s
     0     0 -250.17028    0  954 -283.93525 -250.17028  11.9%     -  430s
     0     0 -250.17028    0  956 -283.93525 -250.17028  11.9%     -  437s
     0     0 -251.15513    0 1000 -283.93525 -251.15513  11.5%     -  493s
     0     0 -252.52478    0 1012 -283.93525 -252.52478  11.1%     -  542s
     0     0 -252.68659    0 1057 -283.93525 -252.68659  11.0%     -  552s
     0     0 -254.44525    0  939 -283.93525 -254.44525  10.4%     -  603s
     0     0 -254.47404    0  989 -283.93525 -254.47404  10.4%     -  619s
     0     0 -254.64697    0  990 -283.93525 -254.64697  10.3%     -  639s
     0     0 -254.66235    0 1045 -283.93525 -254.66235  10.3%     -  657s
     0     0 -254.69079    0 1038 -283.93525 -254.69079  10.3%     -  664s
     0     0 -254.69079    0 1038 -283.93525 -254.69079  10.3%     -  667s
     0     0 -256.90967    0  982 -283.93525 -256.90967  9.52%     -  752s
     0     0 -257.02493    0  943 -283.93525 -257.02493  9.48%     -  771s
     0     0 -257.07298    0  984 -283.93525 -257.07298  9.46%     -  795s
     0     0 -257.07298    0  984 -283.93525 -257.07298  9.46%     -  797s
     0     0 -258.54537    0  978 -283.93525 -258.54537  8.94%     -  855s
     0     0 -258.56576    0  998 -283.93525 -258.56576  8.93%     -  879s
     0     0 -258.56612    0  995 -283.93525 -258.56612  8.93%     -  882s
     0     0 -259.00736    0  975 -283.93525 -259.00736  8.78%     -  913s
     0     0 -259.21297    0 1004 -283.93525 -259.21297  8.71%     -  953s
     0     0 -259.22048    0 1015 -283.93525 -259.22048  8.70%     -  958s
     0     0 -259.22213    0 1016 -283.93525 -259.22213  8.70%     -  968s
     0     0 -260.26071    0  946 -283.93525 -260.26071  8.34%     - 1010s
     0     0 -260.28022    0 1009 -283.93525 -260.28022  8.33%     - 1028s
     0     0 -260.28517    0  994 -283.93525 -260.28517  8.33%     - 1040s
     0     0 -261.75074    0  928 -283.93525 -261.75074  7.81%     - 1155s
     0     0 -261.75074    0  987 -283.93525 -261.75074  7.81%     - 1167s
     0     0 -262.76617    0  871 -283.93525 -262.76617  7.46%     - 1212s
     0     0 -263.05630    0  948 -283.93525 -263.05630  7.35%     - 1276s
     0     0 -263.95084    0  911 -283.93525 -263.95084  7.04%     - 1362s
     0     0 -263.95084    0  912 -283.93525 -263.95084  7.04%     - 1365s
     0     0 -264.45856    0  882 -283.93525 -264.45856  6.86%     - 1407s
     0     0 -265.55082    0 1032 -283.93525 -265.55082  6.47%     - 1522s
     0     0 -265.64323    0  956 -283.93525 -265.64323  6.44%     - 1568s
     0     0 -265.64323    0  957 -283.93525 -265.64323  6.44%     - 1570s
     0     0 -265.77862    0  929 -283.93525 -265.77862  6.39%     - 1612s
     0     0 -265.77862    0  981 -283.93525 -265.77862  6.39%     - 1622s
     0     0 -266.32019    0 1016 -283.93525 -266.32019  6.20%     - 1737s
     0     0 -266.48943    0 1025 -283.93525 -266.48943  6.14%     - 1758s
     0     0 -266.48943    0 1025 -283.93525 -266.48943  6.14%     - 1761s
     0     0 -266.48943    0 1078 -283.93525 -266.48943  6.14%     - 1778s
     0     0 -266.69251    0 1084 -283.93525 -266.69251  6.07%     - 1793s
     0     0 -266.69251    0 1083 -283.93525 -266.69251  6.07%     - 1797s
     0     0 -268.11435    0 1029 -283.93525 -268.11435  5.57%     - 1869s
H    0     0                    -282.2144261 -268.11435  5.00%     - 1874s
     0     0 -268.21638    0 1093 -282.21443 -268.21638  4.96%     - 1882s
     0     0 -268.22974    0 1085 -282.21443 -268.22974  4.96%     - 1893s
     0     0 -268.22974    0 1085 -282.21443 -268.22974  4.96%     - 1895s
     0     0 -269.25943    0 1085 -282.21443 -269.25943  4.59%     - 2098s
     0     0 -269.29511    0 1138 -282.21443 -269.29511  4.58%     - 2108s
     0     0 -269.49743    0 1107 -282.21443 -269.49743  4.51%     - 2119s
     0     0 -269.49743    0 1104 -282.21443 -269.49743  4.51%     - 2122s
     0     0 -269.95172    0 1083 -282.21443 -269.95172  4.35%     - 2159s
     0     0 -270.01050    0  982 -282.21443 -270.01050  4.32%     - 2187s
     0     0 -270.01050    0  982 -282.21443 -270.01050  4.32%     - 2191s
     0     0 -270.05752    0  991 -282.21443 -270.05752  4.31%     - 2206s
     0     0 -270.05752    0 1003 -282.21443 -270.05752  4.31%     - 2214s
     0     0 -270.68745    0  987 -282.21443 -270.68745  4.08%     - 2256s
     0     0 -270.68745    0  990 -282.21443 -270.68745  4.08%     - 2263s
     0     0 -270.86987    0  987 -282.21443 -270.86987  4.02%     - 2280s
     0     0 -270.94805    0  990 -282.21443 -270.94805  3.99%     - 2291s
     0     0 -270.94805    0  993 -282.21443 -270.94805  3.99%     - 2294s
     0     0 -271.42753    0  988 -282.21443 -271.42753  3.82%     - 2314s
     0     0 -271.57462    0  993 -282.21443 -271.57462  3.77%     - 2328s
     0     0 -271.57735    0 1000 -282.21443 -271.57735  3.77%     - 2332s
     0     0 -272.14271    0  998 -282.21443 -272.14271  3.57%     - 2349s
     0     0 -272.24736    0 1004 -282.21443 -272.24736  3.53%     - 2361s
     0     0 -272.24736    0 1004 -282.21443 -272.24736  3.53%     - 2365s
     0     0 -272.83233    0 1006 -282.21443 -272.83233  3.32%     - 2394s
     0     0 -272.83233    0 1009 -282.21443 -272.83233  3.32%     - 2400s
     0     0 -273.12398    0 1019 -282.21443 -273.12398  3.22%     - 2423s
     0     0 -273.12398    0 1037 -282.21443 -273.12398  3.22%     - 2428s
     0     0 -273.39528    0  858 -282.21443 -273.39528  3.12%     - 2693s
     0     0 -273.39528    0  913 -282.21443 -273.39528  3.12%     - 2788s
     0     0 -273.39528    0  897 -282.21443 -273.39528  3.12%     - 2794s
     0     0 -273.60220    0  838 -282.21443 -273.60220  3.05%     - 2795s
     0     0 -273.63041    0  832 -282.21443 -273.63041  3.04%     - 2796s
     0     0 -273.63041    0  834 -282.21443 -273.63041  3.04%     - 2796s
     0     0 -274.46543    0  731 -282.21443 -274.46543  2.75%     - 2802s
     0     0 -274.46543    0  813 -282.21443 -274.46543  2.75%     - 2808s
     0     0 -274.46543    0  851 -282.21443 -274.46543  2.75%     - 2810s
     0     0 -274.46543    0  844 -282.21443 -274.46543  2.75%     - 2811s
     0     0 -274.46543    0  790 -282.21443 -274.46543  2.75%     - 2811s
     0     0 -274.46543    0  778 -282.21443 -274.46543  2.75%     - 2811s
     0     0 -275.22216    0  791 -282.21443 -275.22216  2.48%     - 2812s
     0     0 -275.33972    0  768 -282.21443 -275.33972  2.44%     - 2812s
     0     0 -275.33972    0  799 -282.21443 -275.33972  2.44%     - 2813s
     0     0 -275.78335    0  523 -282.21443 -275.78335  2.28%     - 2813s
     0     0 -275.94915    0  841 -282.21443 -275.94915  2.22%     - 2814s
     0     0 -275.97522    0  856 -282.21443 -275.97522  2.21%     - 2814s
     0     0 -275.97522    0  850 -282.21443 -275.97522  2.21%     - 2815s
     0     0 -275.97522    0  844 -282.21443 -275.97522  2.21%     - 2815s
     0     0 -275.97522    0  839 -282.21443 -275.97522  2.21%     - 2816s
     0     0 -275.97522    0  836 -282.21443 -275.97522  2.21%     - 2816s
     0     0 -276.02445    0  841 -282.21443 -276.02445  2.19%     - 2817s
     0     0 -276.03324    0  841 -282.21443 -276.03324  2.19%     - 2817s
     0     0 -276.03324    0  840 -282.21443 -276.03324  2.19%     - 2817s
     0     0 -276.03324    0  764 -282.21443 -276.03324  2.19%     - 2821s
     0     0 -276.03324    0  819 -282.21443 -276.03324  2.19%     - 2821s
     0     0 -276.06548    0  810 -282.21443 -276.06548  2.18%     - 2822s
     0     0 -276.08599    0  826 -282.21443 -276.08599  2.17%     - 2822s
     0     0 -276.09129    0  826 -282.21443 -276.09129  2.17%     - 2823s
     0     0 -276.09541    0  825 -282.21443 -276.09541  2.17%     - 2823s
     0     0 -276.24413    0  820 -282.21443 -276.24413  2.12%     - 2825s
     0     0 -276.26294    0  827 -282.21443 -276.26294  2.11%     - 2825s
     0     0 -276.27547    0  829 -282.21443 -276.27547  2.10%     - 2826s
     0     0 -276.28003    0  827 -282.21443 -276.28003  2.10%     - 2826s
     0     0 -276.28003    0  827 -282.21443 -276.28003  2.10%     - 2826s
     0     0 -276.52620    0  812 -282.21443 -276.52620  2.02%     - 2827s
     0     0 -276.52620    0  828 -282.21443 -276.52620  2.02%     - 2827s
     0     0 -276.52620    0  828 -282.21443 -276.52620  2.02%     - 2828s
     0     0 -276.52620    0  828 -282.21443 -276.52620  2.02%     - 2828s
     0     0 -276.52620    0  668 -282.21443 -276.52620  2.02%     - 2831s
     0     0 -276.52620    0  694 -282.21443 -276.52620  2.02%     - 2832s
     0     0 -276.52620    0  729 -282.21443 -276.52620  2.02%     - 2834s
     0     0 -276.52620    0  813 -282.21443 -276.52620  2.02%     - 2834s
     0     0 -276.52620    0  790 -282.21443 -276.52620  2.02%     - 2838s
     0     0 -276.52620    0  790 -282.21443 -276.52620  2.02%     - 2839s
     0     0 -276.52620    0  802 -282.21443 -276.52620  2.02%     - 2843s
     0     0 -276.52620    0  740 -282.21443 -276.52620  2.02%     - 2845s
     0     0 -276.52620    0  777 -282.21443 -276.52620  2.02%     - 2845s
     0     0 -276.52620    0  698 -282.21443 -276.52620  2.02%     - 2845s
     0     0 -276.52620    0  653 -282.21443 -276.52620  2.02%     - 2845s
     0     0 -276.52620    0  638 -282.21443 -276.52620  2.02%     - 2846s
     0     0 -276.52620    0  770 -282.21443 -276.52620  2.02%     - 2846s
     0     0 -276.52620    0  772 -282.21443 -276.52620  2.02%     - 2847s
     0     0 -276.52620    0  777 -282.21443 -276.52620  2.02%     - 2847s
     0     0 -276.52620    0  849 -282.21443 -276.52620  2.02%     - 2847s
     0     0 -276.52620    0  839 -282.21443 -276.52620  2.02%     - 2848s
     0     0 -276.52620    0  840 -282.21443 -276.52620  2.02%     - 2848s
     0     0 -276.52620    0  821 -282.21443 -276.52620  2.02%     - 2849s
     0     0 -276.52620    0  611 -282.21443 -276.52620  2.02%     - 2851s
     0     0 -276.52620    0  751 -282.21443 -276.52620  2.02%     - 2851s
     0     0 -276.52620    0  780 -282.21443 -276.52620  2.02%     - 2853s
     0     0 -276.52620    0  786 -282.21443 -276.52620  2.02%     - 2853s
     0     0 -276.56004    0  718 -282.21443 -276.56004  2.00%     - 2855s
     0     0 -276.56004    0  830 -282.21443 -276.56004  2.00%     - 2856s
     0     0 -276.58543    0  823 -282.21443 -276.58543  1.99%     - 2857s
     0     0 -276.59389    0  821 -282.21443 -276.59389  1.99%     - 2857s
     0     0 -276.59471    0  820 -282.21443 -276.59471  1.99%     - 2857s
     0     0 -276.59579    0  821 -282.21443 -276.59579  1.99%     - 2859s
     0     0 -276.59579    0  820 -282.21443 -276.59579  1.99%     - 2860s
     0     2 -276.76641    0  820 -282.21443 -276.76641  1.93%     - 2861s

Cutting planes:
  Gomory: 6
  Implied bound: 1
  MIR: 4
  StrongCG: 1
  Zero half: 99

Explored 52 nodes (274269 simplex iterations) in 2864.15 seconds
Thread count was 1 (of 80 available processors)

Solution count 7: -282.214 -282.214 -282.214 ... -14587.6

Optimal solution found (tolerance 1.00e-04)
Best objective -2.822144260882e+02, best bound -2.822144260882e+02, gap 0.0000%
